p wcnf 185 92 93 
1 -15 -110 0 
1 -47 73 0 
1 -119 -150 0 
1 20 121 0 
1 -53 -175 0 
1 -150 4 0 
1 119 -88 0 
1 82 112 0 
1 138 158 0 
1 -8 6 0 
1 14 -102 0 
1 -169 -168 0 
1 -116 37 0 
1 94 -11 0 
1 30 -135 0 
1 -33 154 0 
1 89 151 0 
1 -5 80 0 
1 103 33 0 
1 -6 34 0 
1 10 -145 0 
1 146 86 0 
1 -147 141 0 
1 -22 -15 0 
1 -66 -141 0 
1 -11 52 0 
1 175 -125 0 
1 151 91 0 
1 34 -100 0 
1 148 -6 0 
1 -171 81 0 
1 6 48 0 
1 76 -58 0 
1 88 -112 0 
1 -92 4 0 
1 46 94 0 
1 -75 62 0 
1 97 -169 0 
1 98 -14 0 
1 -94 25 0 
1 -92 84 0 
1 -52 -136 0 
1 174 -179 0 
1 -161 74 0 
1 -95 75 0 
1 -87 -139 0 
1 -173 157 0 
1 -59 94 0 
1 -73 54 0 
1 -21 -27 0 
1 -152 99 0 
1 173 -102 0 
1 70 -61 0 
1 112 97 0 
1 115 130 0 
1 -69 -60 0 
1 -173 60 0 
1 113 102 0 
1 27 137 0 
1 11 156 0 
1 -131 -107 0 
1 109 -165 0 
1 -163 -139 0 
1 162 76 0 
1 -73 59 0 
1 163 71 0 
1 159 173 0 
1 47 -5 0 
1 63 -45 0 
1 -54 16 0 
1 174 -11 0 
1 -23 -145 0 
1 50 48 0 
1 147 176 0 
1 46 33 0 
1 -31 -86 0 
1 -134 -45 0 
1 -112 54 0 
1 -71 -63 0 
1 -119 -173 0 
1 25 -18 0 
1 -112 22 0 
1 -59 42 0 
1 -72 -115 0 
1 151 -122 0 
1 170 -66 0 
1 -170 -181 0 
1 49 6 0 
1 -162 -38 0 
1 -67 -70 0 
1 81 119 0 
1 -163 -172 0 
